100
32
7
24
32
1
17
3
12
18
28
16
2
16
12
30
8
24
2
4
27
17
9
10
22
9
28
6
5
19
10
14
32
29
32
4
32
29
4
1
21
32
6
32
19
11
32
15
11
28
4
3
2
2
32
23
32
32
16
2
32
10
2
14
7
4
23
9
28
4
27
4
31
1
26
16
22
32
5
1
16
13
16
7
4
27
5
32
32
4
5
20
4
1
7
3
22
4
32
3
27
32